====================================================================================================================
File name: 200_20_55_9.def
Creation date: Mon Nov 24 20:40:31 CET 2014
Website: http://imopse.ii.pwr.edu.pl/
Reference:
Myszkowski P. B., Skowronski M. E., Olech L., Oslizlo K.,
Hybrid Ant Colony Optimization in solving Multi-Skill Resource-Constrained Project Scheduling Problem,
Soft Computing, DOI: DOI 10.1007/s00500-014-1455-x
====================================================================================================================
General characteristics:
Tasks: 200
Resources: 20
Precedence relations: 55
Number of skill types: 9
====================================================================================================================
ResourceID 	 Salary 	 Skills
1	 	 	76.9	 	 Q8: 1 	  Q0: 2 	  Q7: 2 	  Q2: 2 	  Q5: 0 	  Q1: 2
2	 	 	98.2	 	 Q2: 0 	  Q0: 1 	  Q7: 2 	  Q4: 1 	  Q6: 2 	  Q5: 0
3	 	 	65.6	 	 Q5: 1 	  Q3: 2 	  Q1: 0 	  Q6: 2 	  Q8: 1 	  Q4: 2
4	 	 	38.7	 	 Q4: 0 	  Q0: 1 	  Q7: 2 	  Q6: 2 	  Q3: 1 	  Q2: 1
5	 	 	53.4	 	 Q7: 2 	  Q2: 2 	  Q3: 1 	  Q4: 1 	  Q0: 0 	  Q1: 2
6	 	 	23.9	 	 Q2: 1 	  Q5: 0 	  Q7: 2 	  Q8: 0 	  Q1: 0 	  Q6: 0
7	 	 	13.3	 	 Q0: 2 	  Q4: 0 	  Q5: 0 	  Q3: 0 	  Q6: 0 	  Q2: 2
8	 	 	59.4	 	 Q4: 2 	  Q8: 0 	  Q5: 2 	  Q1: 0 	  Q0: 0 	  Q3: 0
9	 	 	21.9	 	 Q3: 2 	  Q4: 1 	  Q2: 0 	  Q6: 1 	  Q7: 2 	  Q5: 1
10	 	 	64.6	 	 Q5: 2 	  Q1: 1 	  Q6: 1 	  Q2: 2 	  Q0: 1 	  Q4: 1
11	 	 	50.9	 	 Q0: 1 	  Q6: 0 	  Q3: 1 	  Q1: 1 	  Q8: 1 	  Q5: 0
12	 	 	55.5	 	 Q4: 2 	  Q2: 2 	  Q3: 2 	  Q0: 1 	  Q1: 1 	  Q5: 2
13	 	 	46.3	 	 Q1: 1 	  Q3: 0 	  Q8: 2 	  Q2: 0 	  Q5: 2 	  Q6: 0
14	 	 	42.8	 	 Q4: 2 	  Q1: 2 	  Q0: 0 	  Q8: 0 	  Q2: 1 	  Q7: 0
15	 	 	37.5	 	 Q5: 1 	  Q6: 2 	  Q4: 0 	  Q7: 0 	  Q3: 1 	  Q1: 1
16	 	 	13.8	 	 Q3: 1 	  Q6: 0 	  Q4: 2 	  Q2: 1 	  Q1: 1 	  Q8: 2
17	 	 	67.1	 	 Q8: 1 	  Q0: 2 	  Q7: 0 	  Q5: 2 	  Q3: 1 	  Q6: 2
18	 	 	95.4	 	 Q1: 1 	  Q0: 1 	  Q8: 0 	  Q7: 0 	  Q3: 1 	  Q6: 0
19	 	 	11.5	 	 Q7: 1 	  Q8: 1 	  Q5: 2 	  Q2: 2 	  Q0: 1 	  Q6: 0
20	 	 	23.5	 	 Q4: 2 	  Q2: 2 	  Q6: 0 	  Q8: 2 	  Q3: 1 	  Q7: 2
====================================================================================================================
TaskID 	 Duration 	 Skill 	 Predecessor IDs
1	 	 	35	 Q2: 1
2	 	 	39	 Q5: 1
3	 	 	32	 Q0: 1
4	 	 	10	 Q5: 0
5	 	 	23	 Q5: 0
6	 	 	38	 Q8: 1
7	 	 	14	 Q8: 2
8	 	 	9	 Q3: 1
9	 	 	13	 Q7: 0
10	 	 	16	 Q0: 1
11	 	 	12	 Q8: 1
12	 	 	24	 Q8: 1
13	 	 	29	 Q2: 1
14	 	 	30	 Q0: 0
15	 	 	21	 Q0: 2
16	 	 	37	 Q3: 1
17	 	 	24	 Q8: 0
18	 	 	35	 Q8: 2
19	 	 	9	 Q8: 1
20	 	 	28	 Q7: 2
21	 	 	34	 Q5: 1
22	 	 	28	 Q6: 0
23	 	 	40	 Q6: 1
24	 	 	25	 Q6: 1
25	 	 	12	 Q7: 0
26	 	 	28	 Q2: 2
27	 	 	35	 Q0: 0
28	 	 	34	 Q4: 2
29	 	 	23	 Q7: 1
30	 	 	31	 Q5: 1
31	 	 	19	 Q0: 0
32	 	 	21	 Q5: 2
33	 	 	17	 Q4: 1
34	 	 	13	 Q1: 2
35	 	 	38	 Q6: 2
36	 	 	35	 Q6: 2
37	 	 	21	 Q3: 1
38	 	 	20	 Q2: 0
39	 	 	32	 Q8: 1
40	 	 	14	 Q4: 0
41	 	 	27	 Q5: 0
42	 	 	15	 Q1: 0
43	 	 	22	 Q3: 1
44	 	 	37	 Q5: 2
45	 	 	30	 Q8: 1	 	14
46	 	 	40	 Q8: 0
47	 	 	17	 Q0: 1
48	 	 	24	 Q4: 1	 	46
49	 	 	28	 Q3: 2
50	 	 	34	 Q4: 2	 	38
51	 	 	37	 Q6: 2	 	28
52	 	 	29	 Q8: 0
53	 	 	25	 Q7: 1
54	 	 	27	 Q6: 0	 	12
55	 	 	20	 Q8: 1
56	 	 	34	 Q3: 1
57	 	 	23	 Q2: 0
58	 	 	29	 Q1: 2
59	 	 	21	 Q5: 0
60	 	 	28	 Q7: 1
61	 	 	22	 Q1: 2
62	 	 	11	 Q3: 0
63	 	 	31	 Q0: 1	 	15
64	 	 	13	 Q8: 1
65	 	 	20	 Q2: 1	 	59
66	 	 	27	 Q1: 1
67	 	 	9	 Q4: 2
68	 	 	30	 Q7: 2
69	 	 	11	 Q8: 0
70	 	 	23	 Q0: 0
71	 	 	39	 Q7: 1
72	 	 	23	 Q7: 1
73	 	 	39	 Q7: 1
74	 	 	18	 Q4: 2
75	 	 	31	 Q7: 2
76	 	 	40	 Q3: 0
77	 	 	37	 Q4: 0	 	57
78	 	 	32	 Q0: 1
79	 	 	39	 Q5: 0
80	 	 	13	 Q7: 2
81	 	 	9	 Q3: 0
82	 	 	14	 Q5: 2
83	 	 	14	 Q2: 1
84	 	 	23	 Q0: 1
85	 	 	26	 Q3: 1
86	 	 	15	 Q5: 1
87	 	 	40	 Q8: 2
88	 	 	31	 Q3: 2
89	 	 	15	 Q6: 2	 	78
90	 	 	25	 Q8: 0
91	 	 	28	 Q4: 0
92	 	 	10	 Q1: 2
93	 	 	27	 Q8: 0
94	 	 	30	 Q2: 2
95	 	 	18	 Q3: 0
96	 	 	17	 Q0: 2	 	55
97	 	 	12	 Q7: 2	 	66
98	 	 	21	 Q7: 0
99	 	 	18	 Q1: 1
100	 	 	22	 Q2: 0
101	 	 	17	 Q0: 1
102	 	 	34	 Q7: 1
103	 	 	9	 Q7: 1
104	 	 	24	 Q7: 0
105	 	 	37	 Q7: 0
106	 	 	15	 Q0: 0	 	25	32
107	 	 	36	 Q5: 1	 	34
108	 	 	11	 Q5: 2
109	 	 	34	 Q4: 0
110	 	 	16	 Q3: 0	 	48
111	 	 	22	 Q1: 1
112	 	 	10	 Q7: 1	 	21
113	 	 	25	 Q2: 0
114	 	 	35	 Q3: 1
115	 	 	29	 Q4: 1
116	 	 	31	 Q5: 0
117	 	 	11	 Q2: 1	 	22
118	 	 	31	 Q7: 0	 	56
119	 	 	30	 Q2: 0
120	 	 	32	 Q7: 0
121	 	 	17	 Q5: 2	 	80
122	 	 	12	 Q0: 1
123	 	 	39	 Q5: 1
124	 	 	29	 Q3: 1
125	 	 	14	 Q5: 0
126	 	 	40	 Q8: 0	 	21
127	 	 	29	 Q5: 0
128	 	 	36	 Q8: 2
129	 	 	30	 Q4: 2
130	 	 	12	 Q8: 1
131	 	 	30	 Q2: 2	 	11	87
132	 	 	28	 Q6: 0
133	 	 	24	 Q2: 1
134	 	 	17	 Q3: 1	 	78
135	 	 	14	 Q6: 0	 	59	18
136	 	 	29	 Q7: 0
137	 	 	29	 Q7: 2
138	 	 	35	 Q3: 1
139	 	 	33	 Q3: 0	 	28
140	 	 	33	 Q8: 2	 	106
141	 	 	21	 Q2: 2
142	 	 	30	 Q7: 1	 	88
143	 	 	24	 Q1: 0
144	 	 	25	 Q2: 2
145	 	 	14	 Q0: 0	 	106	109
146	 	 	10	 Q4: 0
147	 	 	21	 Q2: 0
148	 	 	13	 Q3: 1
149	 	 	12	 Q2: 2
150	 	 	33	 Q7: 2
151	 	 	31	 Q5: 1
152	 	 	28	 Q8: 2	 	36
153	 	 	27	 Q5: 2
154	 	 	18	 Q4: 0
155	 	 	14	 Q8: 0
156	 	 	14	 Q6: 0
157	 	 	11	 Q8: 1
158	 	 	24	 Q2: 1
159	 	 	40	 Q8: 1	 	26
160	 	 	12	 Q5: 1
161	 	 	37	 Q3: 1
162	 	 	27	 Q6: 0	 	26	31
163	 	 	14	 Q6: 2
164	 	 	14	 Q1: 1
165	 	 	24	 Q5: 0
166	 	 	18	 Q4: 1	 	90
167	 	 	34	 Q6: 2
168	 	 	35	 Q4: 0
169	 	 	12	 Q1: 2
170	 	 	36	 Q3: 2
171	 	 	13	 Q3: 1
172	 	 	27	 Q1: 0
173	 	 	33	 Q0: 0
174	 	 	12	 Q8: 0
175	 	 	27	 Q8: 0	 	86	59
176	 	 	27	 Q6: 0	 	60	166	174
177	 	 	28	 Q0: 0
178	 	 	34	 Q6: 1
179	 	 	38	 Q0: 0	 	170
180	 	 	17	 Q4: 0
181	 	 	21	 Q5: 2
182	 	 	18	 Q3: 2	 	69
183	 	 	16	 Q6: 1
184	 	 	30	 Q4: 0
185	 	 	26	 Q5: 2	 	1
186	 	 	13	 Q0: 0
187	 	 	34	 Q4: 1	 	182
188	 	 	8	 Q0: 1	 	177	87
189	 	 	11	 Q2: 0
190	 	 	12	 Q0: 2	 	180
191	 	 	29	 Q3: 1
192	 	 	21	 Q3: 0	 	47	85
193	 	 	16	 Q6: 0	 	112
194	 	 	26	 Q6: 1
195	 	 	36	 Q4: 1
196	 	 	33	 Q5: 1	 	53
197	 	 	26	 Q4: 2	 	67
198	 	 	40	 Q6: 1	 	68
199	 	 	14	 Q2: 1
200	 	 	29	 Q1: 0	 	72	108
====================================================================================================================
